1 6 58
2 72 34
3 29 90
4 10 52
5 93 18
6 42 88
7 52 51
8 75 62
9 27 68
10 67 35
11 12 16
12 53 70
13 96 10
14 17 59
15 58 71
16 16 66
17 11 62
18 1 63
19 75 13
20 71 18
21 55 28
22 40 8
23 56 64
24 3 97
25 21 4
26 65 31
27 53 39
28 5 28
29 55 45
30 62 28
